445
2
85, 20, 96, 47, 99, 61, 87, 96, 13, 5, 85, 64, 54, 93, 3, 55, 49, 42, 51, 23, 55, 55, 60, 44
12, 41, 73, 25, 63, 75, 42, 30, 10, 56, 81, 12, 91, 1, 7, 73, 96, 76, 21, 6, 22, 40, 98, 89
1, 2, 2, 2, 2, 1, 1, 2, 1, 2, 2, 2, 2, 1, 1, 1, 1, 1, 2, 1, 2, 2, 2, 1